NAME          DCAP_2_4_3_200_SS117
ROWS
 N  OBJ
 L  CON1
 L  CON2
 L  CON3
 L  CON4
 L  CON5
 L  CON6
 L  CON7
 L  CON8
 L  CON9
 L  CON10
 L  CON11
 L  CON12
 E  CON13
 E  CON14
 E  CON15
 E  CON16
 E  CON17
 E  CON18
 E  CON19
 E  CON20
 E  CON21
 E  CON22
 E  CON23
 E  CON24
COLUMNS
    x[1,1]    OBJ       6.180167      CON1      1.000000    
    x[1,1]    CON7      -1.000000     CON8      -1.000000   
    x[1,1]    CON9      -1.000000   
    x[1,2]    OBJ       6.563535      CON2      1.000000    
    x[1,2]    CON8      -1.000000     CON9      -1.000000   
    x[1,3]    OBJ       7.443064      CON3      1.000000    
    x[1,3]    CON9      -1.000000   
    x[2,1]    OBJ       6.732585      CON4      1.000000    
    x[2,1]    CON10     -1.000000     CON11     -1.000000   
    x[2,1]    CON12     -1.000000   
    x[2,2]    OBJ       5.039546      CON5      1.000000    
    x[2,2]    CON11     -1.000000     CON12     -1.000000   
    x[2,3]    OBJ       6.054841      CON6      1.000000    
    x[2,3]    CON12     -1.000000   
    MARKER    'MARKER'                'INTORG'
    u[1,1]    OBJ       48.076654     CON1      -1.000000   
    u[1,2]    OBJ       20.066487     CON2      -1.000000   
    u[1,3]    OBJ       32.230043     CON3      -1.000000   
    u[2,1]    OBJ       49.996186     CON4      -1.000000   
    u[2,2]    OBJ       49.466655     CON5      -1.000000   
    u[2,3]    OBJ       27.484319     CON6      -1.000000   
    y[1,1,1]  OBJ       7.603623      CON7      1.495216    
    y[1,1,1]  CON13     1.000000    
    y[1,1,2]  OBJ       6.285058      CON8      0.613732    
    y[1,1,2]  CON14     1.000000    
    y[1,1,3]  OBJ       7.380533      CON9      1.351597    
    y[1,1,3]  CON15     1.000000    
    y[1,2,1]  OBJ       5.149966      CON7      0.794735    
    y[1,2,1]  CON16     1.000000    
    y[1,2,2]  OBJ       6.956193      CON8      1.311099    
    y[1,2,2]  CON17     1.000000    
    y[1,2,3]  OBJ       6.533226      CON9      1.048722    
    y[1,2,3]  CON18     1.000000    
    y[1,3,1]  OBJ       5.022504      CON7      0.685529    
    y[1,3,1]  CON19     1.000000    
    y[1,3,2]  OBJ       8.586671      CON8      0.983950    
    y[1,3,2]  CON20     1.000000    
    y[1,3,3]  OBJ       6.070871      CON9      1.063388    
    y[1,3,3]  CON21     1.000000    
    y[1,4,1]  OBJ       9.050420      CON7      0.592299    
    y[1,4,1]  CON22     1.000000    
    y[1,4,2]  OBJ       5.508421      CON8      1.367199    
    y[1,4,2]  CON23     1.000000    
    y[1,4,3]  OBJ       5.369252      CON9      0.645361    
    y[1,4,3]  CON24     1.000000    
    y[2,1,1]  OBJ       9.692176      CON10     1.495216    
    y[2,1,1]  CON13     1.000000    
    y[2,1,2]  OBJ       7.367043      CON11     0.613732    
    y[2,1,2]  CON14     1.000000    
    y[2,1,3]  OBJ       7.147521      CON12     1.351597    
    y[2,1,3]  CON15     1.000000    
    y[2,2,1]  OBJ       9.900154      CON10     0.794735    
    y[2,2,1]  CON16     1.000000    
    y[2,2,2]  OBJ       7.847391      CON11     1.311099    
    y[2,2,2]  CON17     1.000000    
    y[2,2,3]  OBJ       6.762387      CON12     1.048722    
    y[2,2,3]  CON18     1.000000    
    y[2,3,1]  OBJ       9.628877      CON10     0.685529    
    y[2,3,1]  CON19     1.000000    
    y[2,3,2]  OBJ       5.023396      CON11     0.983950    
    y[2,3,2]  CON20     1.000000    
    y[2,3,3]  OBJ       8.883431      CON12     1.063388    
    y[2,3,3]  CON21     1.000000    
    y[2,4,1]  OBJ       5.370057      CON10     0.592299    
    y[2,4,1]  CON22     1.000000    
    y[2,4,2]  OBJ       7.583057      CON11     1.367199    
    y[2,4,2]  CON23     1.000000    
    y[2,4,3]  OBJ       6.424143      CON12     0.645361    
    y[2,4,3]  CON24     1.000000    
    z[1,1]    OBJ       959.750511    CON13     1.000000    
    z[1,2]    OBJ       736.128180    CON14     1.000000    
    z[1,3]    OBJ       898.272578    CON15     1.000000    
    z[2,1]    OBJ       937.940102    CON16     1.000000    
    z[2,2]    OBJ       545.796139    CON17     1.000000    
    z[2,3]    OBJ       681.172673    CON18     1.000000    
    z[3,1]    OBJ       959.057581    CON19     1.000000    
    z[3,2]    OBJ       977.671835    CON20     1.000000    
    z[3,3]    OBJ       785.949175    CON21     1.000000    
    z[4,1]    OBJ       640.144593    CON22     1.000000    
    z[4,2]    OBJ       815.504797    CON23     1.000000    
    z[4,3]    OBJ       807.089465    CON24     1.000000    
    MARKER    'MARKER'                 'INTEND'
RHS
    RHS       CON1      -0.000000     CON2      -0.000000   
    RHS       CON3      -0.000000     CON4      -0.000000   
    RHS       CON5      -0.000000     CON6      -0.000000   
    RHS       CON7      -0.000000     CON8      -0.000000   
    RHS       CON9      -0.000000     CON10     -0.000000   
    RHS       CON11     -0.000000     CON12     -0.000000   
    RHS       CON13     1.000000      CON14     1.000000    
    RHS       CON15     1.000000      CON16     1.000000    
    RHS       CON17     1.000000      CON18     1.000000    
    RHS       CON19     1.000000      CON20     1.000000    
    RHS       CON21     1.000000      CON22     1.000000    
    RHS       CON23     1.000000      CON24     1.000000    
BOUNDS
 BV BOUND     u[1,1]  
 BV BOUND     u[1,2]  
 BV BOUND     u[1,3]  
 BV BOUND     u[2,1]  
 BV BOUND     u[2,2]  
 BV BOUND     u[2,3]  
 BV BOUND     y[1,1,1]
 BV BOUND     y[1,1,2]
 BV BOUND     y[1,1,3]
 BV BOUND     y[1,2,1]
 BV BOUND     y[1,2,2]
 BV BOUND     y[1,2,3]
 BV BOUND     y[1,3,1]
 BV BOUND     y[1,3,2]
 BV BOUND     y[1,3,3]
 BV BOUND     y[1,4,1]
 BV BOUND     y[1,4,2]
 BV BOUND     y[1,4,3]
 BV BOUND     y[2,1,1]
 BV BOUND     y[2,1,2]
 BV BOUND     y[2,1,3]
 BV BOUND     y[2,2,1]
 BV BOUND     y[2,2,2]
 BV BOUND     y[2,2,3]
 BV BOUND     y[2,3,1]
 BV BOUND     y[2,3,2]
 BV BOUND     y[2,3,3]
 BV BOUND     y[2,4,1]
 BV BOUND     y[2,4,2]
 BV BOUND     y[2,4,3]
 BV BOUND     z[1,1]  
 BV BOUND     z[1,2]  
 BV BOUND     z[1,3]  
 BV BOUND     z[2,1]  
 BV BOUND     z[2,2]  
 BV BOUND     z[2,3]  
 BV BOUND     z[3,1]  
 BV BOUND     z[3,2]  
 BV BOUND     z[3,3]  
 BV BOUND     z[4,1]  
 BV BOUND     z[4,2]  
 BV BOUND     z[4,3]  
ENDATA
